\Problem name: compact

Minimize
OBJROW: C
Subject To
ord(0,1):  - x(0,2) + x(0,3) >= 2
ord(0,2):  x(0,1) - x(0,3) >= 2
ord(0,3):  x(0,0) - x(0,1) >= 8
ord(1,1):  x(1,0) - x(1,2) >= 8
ord(1,2):  - x(1,0) + x(1,3) >= 5
ord(1,3):  x(1,1) - x(1,3) >= 10
ord(2,1):  - x(2,0) + x(2,3) >= 10
ord(2,2):  x(2,2) - x(2,3) >= 9
ord(2,3):  x(2,1) - x(2,2) >= 6
ord(3,1):  - x(3,0) + x(3,1) >= 2
ord(3,2):  - x(3,1) + x(3,3) >= 1
ord(3,3):  x(3,2) - x(3,3) >= 4
ord(4,1):  - x(4,1) + x(4,2) >= 9
ord(4,2):  - x(4,2) + x(4,3) >= 6
ord(4,3):  x(4,0) - x(4,3) >= 9
triangle2(0,1,0):  y(0,1,0) + y(1,0,0) = 1
triangle2(0,1,1):  y(0,1,1) + y(1,0,1) = 1
triangle2(0,1,2):  y(0,1,2) + y(1,0,2) = 1
triangle2(0,1,3):  y(0,1,3) + y(1,0,3) = 1
triangle2(0,2,0):  y(0,2,0) + y(2,0,0) = 1
triangle2(0,2,1):  y(0,2,1) + y(2,0,1) = 1
triangle2(0,2,2):  y(0,2,2) + y(2,0,2) = 1
triangle2(0,2,3):  y(0,2,3) + y(2,0,3) = 1
triangle2(0,3,0):  y(0,3,0) + y(3,0,0) = 1
triangle2(0,3,1):  y(0,3,1) + y(3,0,1) = 1
triangle2(0,3,2):  y(0,3,2) + y(3,0,2) = 1
triangle2(0,3,3):  y(0,3,3) + y(3,0,3) = 1
triangle2(0,4,0):  y(0,4,0) + y(4,0,0) = 1
triangle2(0,4,1):  y(0,4,1) + y(4,0,1) = 1
triangle2(0,4,2):  y(0,4,2) + y(4,0,2) = 1
triangle2(0,4,3):  y(0,4,3) + y(4,0,3) = 1
triangle2(1,2,0):  y(1,2,0) + y(2,1,0) = 1
triangle2(1,2,1):  y(1,2,1) + y(2,1,1) = 1
triangle2(1,2,2):  y(1,2,2) + y(2,1,2) = 1
triangle2(1,2,3):  y(1,2,3) + y(2,1,3) = 1
triangle2(1,3,0):  y(1,3,0) + y(3,1,0) = 1
triangle2(1,3,1):  y(1,3,1) + y(3,1,1) = 1
triangle2(1,3,2):  y(1,3,2) + y(3,1,2) = 1
triangle2(1,3,3):  y(1,3,3) + y(3,1,3) = 1
triangle2(1,4,0):  y(1,4,0) + y(4,1,0) = 1
triangle2(1,4,1):  y(1,4,1) + y(4,1,1) = 1
triangle2(1,4,2):  y(1,4,2) + y(4,1,2) = 1
triangle2(1,4,3):  y(1,4,3) + y(4,1,3) = 1
triangle2(2,3,0):  y(2,3,0) + y(3,2,0) = 1
triangle2(2,3,1):  y(2,3,1) + y(3,2,1) = 1
triangle2(2,3,2):  y(2,3,2) + y(3,2,2) = 1
triangle2(2,3,3):  y(2,3,3) + y(3,2,3) = 1
triangle2(2,4,0):  y(2,4,0) + y(4,2,0) = 1
triangle2(2,4,1):  y(2,4,1) + y(4,2,1) = 1
triangle2(2,4,2):  y(2,4,2) + y(4,2,2) = 1
triangle2(2,4,3):  y(2,4,3) + y(4,2,3) = 1
triangle2(3,4,0):  y(3,4,0) + y(4,3,0) = 1
triangle2(3,4,1):  y(3,4,1) + y(4,3,1) = 1
triangle2(3,4,2):  y(3,4,2) + y(4,3,2) = 1
triangle2(3,4,3):  y(3,4,3) + y(4,3,3) = 1
MCLinV(0,1,0):  x(0,0) - v(0,1,0) - x(1,0) = 5
MCLinV(1,0,0):  - x(0,0) - v(1,0,0) + x(1,0) = 9
MCLin1(0,1,0):  u(0,1,0) >= -0
MCLin2(0,1,0):  -88 y(1,0,0) - u(0,1,0) <= -0
MCLin3(0,1,0):  95 y(1,0,0) + v(0,1,0) - u(0,1,0) <= 95
MCLin4(0,1,0):  95 y(1,0,0) - u(0,1,0) >= -0
MCLin5(0,1,0):  -88 y(1,0,0) + v(0,1,0) - u(0,1,0) >= -88
MCLin6(1,0,0):  u(1,0,0) >= -0
MCLin7(1,0,0):  -109 y(0,1,0) - u(1,0,0) <= -0
MCLin8(1,0,0):  74 y(0,1,0) + v(1,0,0) - u(1,0,0) <= 74
MCLin9(1,0,0):  74 y(0,1,0) - u(1,0,0) >= -0
MCLin10(1,0,0):  -109 y(0,1,0) + v(1,0,0) - u(1,0,0) >= -109
MCLinV(0,1,1):  x(0,1) - v(0,1,1) - x(1,1) = 7
MCLinV(1,0,1):  - x(0,1) - v(1,0,1) + x(1,1) = 8
MCLin1(0,1,1):  u(0,1,1) >= -0
MCLin2(0,1,1):  -113 y(1,0,1) - u(0,1,1) <= -0
MCLin3(0,1,1):  70 y(1,0,1) + v(0,1,1) - u(0,1,1) <= 70
MCLin4(0,1,1):  70 y(1,0,1) - u(0,1,1) >= -0
MCLin5(0,1,1):  -113 y(1,0,1) + v(0,1,1) - u(0,1,1) >= -113
MCLin6(1,0,1):  u(1,0,1) >= -0
MCLin7(1,0,1):  -85 y(0,1,1) - u(1,0,1) <= -0
MCLin8(1,0,1):  98 y(0,1,1) + v(1,0,1) - u(1,0,1) <= 98
MCLin9(1,0,1):  98 y(0,1,1) - u(1,0,1) >= -0
MCLin10(1,0,1):  -85 y(0,1,1) + v(1,0,1) - u(1,0,1) >= -85
MCLinV(0,1,2):  x(0,2) - v(0,1,2) - x(1,2) = 8
MCLinV(1,0,2):  - x(0,2) - v(1,0,2) + x(1,2) = 2
MCLin1(0,1,2):  u(0,1,2) >= -0
MCLin2(0,1,2):  -95 y(1,0,2) - u(0,1,2) <= -0
MCLin3(0,1,2):  88 y(1,0,2) + v(0,1,2) - u(0,1,2) <= 88
MCLin4(0,1,2):  88 y(1,0,2) - u(0,1,2) >= -0
MCLin5(0,1,2):  -95 y(1,0,2) + v(0,1,2) - u(0,1,2) >= -95
MCLin6(1,0,2):  u(1,0,2) >= -0
MCLin7(1,0,2):  -98 y(0,1,2) - u(1,0,2) <= -0
MCLin8(1,0,2):  85 y(0,1,2) + v(1,0,2) - u(1,0,2) <= 85
MCLin9(1,0,2):  85 y(0,1,2) - u(1,0,2) >= -0
MCLin10(1,0,2):  -98 y(0,1,2) + v(1,0,2) - u(1,0,2) >= -98
MCLinV(0,1,3):  x(0,3) - v(0,1,3) - x(1,3) = 10
MCLinV(1,0,3):  - x(0,3) - v(1,0,3) + x(1,3) = 2
MCLin1(0,1,3):  u(0,1,3) >= -0
MCLin2(0,1,3):  -108 y(1,0,3) - u(0,1,3) <= -0
MCLin3(0,1,3):  75 y(1,0,3) + v(0,1,3) - u(0,1,3) <= 75
MCLin4(0,1,3):  75 y(1,0,3) - u(0,1,3) >= -0
MCLin5(0,1,3):  -108 y(1,0,3) + v(0,1,3) - u(0,1,3) >= -108
MCLin6(1,0,3):  u(1,0,3) >= -0
MCLin7(1,0,3):  -87 y(0,1,3) - u(1,0,3) <= -0
MCLin8(1,0,3):  96 y(0,1,3) + v(1,0,3) - u(1,0,3) <= 96
MCLin9(1,0,3):  96 y(0,1,3) - u(1,0,3) >= -0
MCLin10(1,0,3):  -87 y(0,1,3) + v(1,0,3) - u(1,0,3) >= -87
MCLinV(0,2,0):  x(0,0) - v(0,2,0) - x(2,0) = 10
MCLinV(2,0,0):  - x(0,0) - v(2,0,0) + x(2,0) = 9
MCLin1(0,2,0):  u(0,2,0) >= -0
MCLin2(0,2,0):  -86 y(2,0,0) - u(0,2,0) <= -0
MCLin3(0,2,0):  98 y(2,0,0) + v(0,2,0) - u(0,2,0) <= 98
MCLin4(0,2,0):  98 y(2,0,0) - u(0,2,0) >= -0
MCLin5(0,2,0):  -86 y(2,0,0) + v(0,2,0) - u(0,2,0) >= -86
MCLin6(2,0,0):  u(2,0,0) >= -0
MCLin7(2,0,0):  -117 y(0,2,0) - u(2,0,0) <= -0
MCLin8(2,0,0):  67 y(0,2,0) + v(2,0,0) - u(2,0,0) <= 67
MCLin9(2,0,0):  67 y(0,2,0) - u(2,0,0) >= -0
MCLin10(2,0,0):  -117 y(0,2,0) + v(2,0,0) - u(2,0,0) >= -117
MCLinV(0,2,1):  x(0,1) - v(0,2,1) - x(2,1) = 4
MCLinV(2,0,1):  - x(0,1) - v(2,0,1) + x(2,1) = 8
MCLin1(0,2,1):  u(0,2,1) >= -0
MCLin2(0,2,1):  -113 y(2,0,1) - u(0,2,1) <= -0
MCLin3(0,2,1):  71 y(2,0,1) + v(0,2,1) - u(0,2,1) <= 71
MCLin4(0,2,1):  71 y(2,0,1) - u(0,2,1) >= -0
MCLin5(0,2,1):  -113 y(2,0,1) + v(0,2,1) - u(0,2,1) >= -113
MCLin6(2,0,1):  u(2,0,1) >= -0
MCLin7(2,0,1):  -83 y(0,2,1) - u(2,0,1) <= -0
MCLin8(2,0,1):  101 y(0,2,1) + v(2,0,1) - u(2,0,1) <= 101
MCLin9(2,0,1):  101 y(0,2,1) - u(2,0,1) >= -0
MCLin10(2,0,1):  -83 y(0,2,1) + v(2,0,1) - u(2,0,1) >= -83
MCLinV(0,2,2):  x(0,2) - v(0,2,2) - x(2,2) = 6
MCLinV(2,0,2):  - x(0,2) - v(2,0,2) + x(2,2) = 2
MCLin1(0,2,2):  u(0,2,2) >= -0
MCLin2(0,2,2):  -113 y(2,0,2) - u(0,2,2) <= -0
MCLin3(0,2,2):  71 y(2,0,2) + v(0,2,2) - u(0,2,2) <= 71
MCLin4(0,2,2):  71 y(2,0,2) - u(0,2,2) >= -0
MCLin5(0,2,2):  -113 y(2,0,2) + v(0,2,2) - u(0,2,2) >= -113
MCLin6(2,0,2):  u(2,0,2) >= -0
MCLin7(2,0,2):  -79 y(0,2,2) - u(2,0,2) <= -0
MCLin8(2,0,2):  105 y(0,2,2) + v(2,0,2) - u(2,0,2) <= 105
MCLin9(2,0,2):  105 y(0,2,2) - u(2,0,2) >= -0
MCLin10(2,0,2):  -79 y(0,2,2) + v(2,0,2) - u(2,0,2) >= -79
MCLinV(0,2,3):  x(0,3) - v(0,2,3) - x(2,3) = 9
MCLinV(2,0,3):  - x(0,3) - v(2,0,3) + x(2,3) = 2
MCLin1(0,2,3):  u(0,2,3) >= -0
MCLin2(0,2,3):  -105 y(2,0,3) - u(0,2,3) <= -0
MCLin3(0,2,3):  79 y(2,0,3) + v(0,2,3) - u(0,2,3) <= 79
MCLin4(0,2,3):  79 y(2,0,3) - u(0,2,3) >= -0
MCLin5(0,2,3):  -105 y(2,0,3) + v(0,2,3) - u(0,2,3) >= -105
MCLin6(2,0,3):  u(2,0,3) >= -0
MCLin7(2,0,3):  -90 y(0,2,3) - u(2,0,3) <= -0
MCLin8(2,0,3):  94 y(0,2,3) + v(2,0,3) - u(2,0,3) <= 94
MCLin9(2,0,3):  94 y(0,2,3) - u(2,0,3) >= -0
MCLin10(2,0,3):  -90 y(0,2,3) + v(2,0,3) - u(2,0,3) >= -90
MCLinV(0,3,0):  x(0,0) - v(0,3,0) - x(3,0) = 2
MCLinV(3,0,0):  - x(0,0) - v(3,0,0) + x(3,0) = 9
MCLin1(0,3,0):  u(0,3,0) >= -0
MCLin2(0,3,0):  -98 y(3,0,0) - u(0,3,0) <= -0
MCLin3(0,3,0):  106 y(3,0,0) + v(0,3,0) - u(0,3,0) <= 106
MCLin4(0,3,0):  106 y(3,0,0) - u(0,3,0) >= -0
MCLin5(0,3,0):  -98 y(3,0,0) + v(0,3,0) - u(0,3,0) >= -98
MCLin6(3,0,0):  u(3,0,0) >= -0
MCLin7(3,0,0):  -117 y(0,3,0) - u(3,0,0) <= -0
MCLin8(3,0,0):  87 y(0,3,0) + v(3,0,0) - u(3,0,0) <= 87
MCLin9(3,0,0):  87 y(0,3,0) - u(3,0,0) >= -0
MCLin10(3,0,0):  -117 y(0,3,0) + v(3,0,0) - u(3,0,0) >= -117
MCLinV(0,3,1):  x(0,1) - v(0,3,1) - x(3,1) = 1
MCLinV(3,0,1):  - x(0,1) - v(3,0,1) + x(3,1) = 8
MCLin1(0,3,1):  u(0,3,1) >= -0
MCLin2(0,3,1):  -107 y(3,0,1) - u(0,3,1) <= -0
MCLin3(0,3,1):  97 y(3,0,1) + v(0,3,1) - u(0,3,1) <= 97
MCLin4(0,3,1):  97 y(3,0,1) - u(0,3,1) >= -0
MCLin5(0,3,1):  -107 y(3,0,1) + v(0,3,1) - u(0,3,1) >= -107
MCLin6(3,0,1):  u(3,0,1) >= -0
MCLin7(3,0,1):  -106 y(0,3,1) - u(3,0,1) <= -0
MCLin8(3,0,1):  98 y(0,3,1) + v(3,0,1) - u(3,0,1) <= 98
MCLin9(3,0,1):  98 y(0,3,1) - u(3,0,1) >= -0
MCLin10(3,0,1):  -106 y(0,3,1) + v(3,0,1) - u(3,0,1) >= -106
MCLinV(0,3,2):  x(0,2) - v(0,3,2) - x(3,2) = 2
MCLinV(3,0,2):  - x(0,2) - v(3,0,2) + x(3,2) = 2
MCLin1(0,3,2):  u(0,3,2) >= -0
MCLin2(0,3,2):  -117 y(3,0,2) - u(0,3,2) <= -0
MCLin3(0,3,2):  87 y(3,0,2) + v(0,3,2) - u(0,3,2) <= 87
MCLin4(0,3,2):  87 y(3,0,2) - u(0,3,2) >= -0
MCLin5(0,3,2):  -117 y(3,0,2) + v(0,3,2) - u(0,3,2) >= -117
MCLin6(3,0,2):  u(3,0,2) >= -0
MCLin7(3,0,2):  -91 y(0,3,2) - u(3,0,2) <= -0
MCLin8(3,0,2):  113 y(0,3,2) + v(3,0,2) - u(3,0,2) <= 113
MCLin9(3,0,2):  113 y(0,3,2) - u(3,0,2) >= -0
MCLin10(3,0,2):  -91 y(0,3,2) + v(3,0,2) - u(3,0,2) >= -91
MCLinV(0,3,3):  x(0,3) - v(0,3,3) - x(3,3) = 4
MCLinV(3,0,3):  - x(0,3) - v(3,0,3) + x(3,3) = 2
MCLin1(0,3,3):  u(0,3,3) >= -0
MCLin2(0,3,3):  -113 y(3,0,3) - u(0,3,3) <= -0
MCLin3(0,3,3):  91 y(3,0,3) + v(0,3,3) - u(0,3,3) <= 91
MCLin4(0,3,3):  91 y(3,0,3) - u(0,3,3) >= -0
MCLin5(0,3,3):  -113 y(3,0,3) + v(0,3,3) - u(0,3,3) >= -113
MCLin6(3,0,3):  u(3,0,3) >= -0
MCLin7(3,0,3):  -97 y(0,3,3) - u(3,0,3) <= -0
MCLin8(3,0,3):  107 y(0,3,3) + v(3,0,3) - u(3,0,3) <= 107
MCLin9(3,0,3):  107 y(0,3,3) - u(3,0,3) >= -0
MCLin10(3,0,3):  -97 y(0,3,3) + v(3,0,3) - u(3,0,3) >= -97
MCLinV(0,4,0):  x(0,0) - v(0,4,0) - x(4,0) = 4
MCLinV(4,0,0):  - x(0,0) - v(4,0,0) + x(4,0) = 9
MCLin1(0,4,0):  u(0,4,0) >= -0
MCLin2(0,4,0):  -105 y(4,0,0) - u(0,4,0) <= -0
MCLin3(0,4,0):  80 y(4,0,0) + v(0,4,0) - u(0,4,0) <= 80
MCLin4(0,4,0):  80 y(4,0,0) - u(0,4,0) >= -0
MCLin5(0,4,0):  -105 y(4,0,0) + v(0,4,0) - u(0,4,0) >= -105
MCLin6(4,0,0):  u(4,0,0) >= -0
MCLin7(4,0,0):  -93 y(0,4,0) - u(4,0,0) <= -0
MCLin8(4,0,0):  92 y(0,4,0) + v(4,0,0) - u(4,0,0) <= 92
MCLin9(4,0,0):  92 y(0,4,0) - u(4,0,0) >= -0
MCLin10(4,0,0):  -93 y(0,4,0) + v(4,0,0) - u(4,0,0) >= -93
MCLinV(0,4,1):  x(0,1) - v(0,4,1) - x(4,1) = 9
MCLinV(4,0,1):  - x(0,1) - v(4,0,1) + x(4,1) = 8
MCLin1(0,4,1):  u(0,4,1) >= -0
MCLin2(0,4,1):  -94 y(4,0,1) - u(0,4,1) <= -0
MCLin3(0,4,1):  91 y(4,0,1) + v(0,4,1) - u(0,4,1) <= 91
MCLin4(0,4,1):  91 y(4,0,1) - u(0,4,1) >= -0
MCLin5(0,4,1):  -94 y(4,0,1) + v(0,4,1) - u(0,4,1) >= -94
MCLin6(4,0,1):  u(4,0,1) >= -0
MCLin7(4,0,1):  -108 y(0,4,1) - u(4,0,1) <= -0
MCLin8(4,0,1):  77 y(0,4,1) + v(4,0,1) - u(4,0,1) <= 77
MCLin9(4,0,1):  77 y(0,4,1) - u(4,0,1) >= -0
MCLin10(4,0,1):  -108 y(0,4,1) + v(4,0,1) - u(4,0,1) >= -108
MCLinV(0,4,2):  x(0,2) - v(0,4,2) - x(4,2) = 6
MCLinV(4,0,2):  - x(0,2) - v(4,0,2) + x(4,2) = 2
MCLin1(0,4,2):  u(0,4,2) >= -0
MCLin2(0,4,2):  -104 y(4,0,2) - u(0,4,2) <= -0
MCLin3(0,4,2):  81 y(4,0,2) + v(0,4,2) - u(0,4,2) <= 81
MCLin4(0,4,2):  81 y(4,0,2) - u(0,4,2) >= -0
MCLin5(0,4,2):  -104 y(4,0,2) + v(0,4,2) - u(0,4,2) >= -104
MCLin6(4,0,2):  u(4,0,2) >= -0
MCLin7(4,0,2):  -89 y(0,4,2) - u(4,0,2) <= -0
MCLin8(4,0,2):  96 y(0,4,2) + v(4,0,2) - u(4,0,2) <= 96
MCLin9(4,0,2):  96 y(0,4,2) - u(4,0,2) >= -0
MCLin10(4,0,2):  -89 y(0,4,2) + v(4,0,2) - u(4,0,2) >= -89
MCLinV(0,4,3):  x(0,3) - v(0,4,3) - x(4,3) = 9
MCLinV(4,0,3):  - x(0,3) - v(4,0,3) + x(4,3) = 2
MCLin1(0,4,3):  u(0,4,3) >= -0
MCLin2(0,4,3):  -111 y(4,0,3) - u(0,4,3) <= -0
MCLin3(0,4,3):  74 y(4,0,3) + v(0,4,3) - u(0,4,3) <= 74
MCLin4(0,4,3):  74 y(4,0,3) - u(0,4,3) >= -0
MCLin5(0,4,3):  -111 y(4,0,3) + v(0,4,3) - u(0,4,3) >= -111
MCLin6(4,0,3):  u(4,0,3) >= -0
MCLin7(4,0,3):  -85 y(0,4,3) - u(4,0,3) <= -0
MCLin8(4,0,3):  100 y(0,4,3) + v(4,0,3) - u(4,0,3) <= 100
MCLin9(4,0,3):  100 y(0,4,3) - u(4,0,3) >= -0
MCLin10(4,0,3):  -85 y(0,4,3) + v(4,0,3) - u(4,0,3) >= -85
MCLinV(1,2,0):  x(1,0) - v(1,2,0) - x(2,0) = 10
MCLinV(2,1,0):  - x(1,0) - v(2,1,0) + x(2,0) = 5
MCLin1(1,2,0):  u(1,2,0) >= -0
MCLin2(1,2,0):  -90 y(2,1,0) - u(1,2,0) <= -0
MCLin3(1,2,0):  85 y(2,1,0) + v(1,2,0) - u(1,2,0) <= 85
MCLin4(1,2,0):  85 y(2,1,0) - u(1,2,0) >= -0
MCLin5(1,2,0):  -90 y(2,1,0) + v(1,2,0) - u(1,2,0) >= -90
MCLin6(2,1,0):  u(2,1,0) >= -0
MCLin7(2,1,0):  -100 y(1,2,0) - u(2,1,0) <= -0
MCLin8(2,1,0):  75 y(1,2,0) + v(2,1,0) - u(2,1,0) <= 75
MCLin9(2,1,0):  75 y(1,2,0) - u(2,1,0) >= -0
MCLin10(2,1,0):  -100 y(1,2,0) + v(2,1,0) - u(2,1,0) >= -100
MCLinV(1,2,1):  x(1,1) - v(1,2,1) - x(2,1) = 4
MCLinV(2,1,1):  - x(1,1) - v(2,1,1) + x(2,1) = 7
MCLin1(1,2,1):  u(1,2,1) >= -0
MCLin2(1,2,1):  -94 y(2,1,1) - u(1,2,1) <= -0
MCLin3(1,2,1):  81 y(2,1,1) + v(1,2,1) - u(1,2,1) <= 81
MCLin4(1,2,1):  81 y(2,1,1) - u(1,2,1) >= -0
MCLin5(1,2,1):  -94 y(2,1,1) + v(1,2,1) - u(1,2,1) >= -94
MCLin6(2,1,1):  u(2,1,1) >= -0
MCLin7(2,1,1):  -92 y(1,2,1) - u(2,1,1) <= -0
MCLin8(2,1,1):  83 y(1,2,1) + v(2,1,1) - u(2,1,1) <= 83
MCLin9(2,1,1):  83 y(1,2,1) - u(2,1,1) >= -0
MCLin10(2,1,1):  -92 y(1,2,1) + v(2,1,1) - u(2,1,1) >= -92
MCLinV(1,2,2):  x(1,2) - v(1,2,2) - x(2,2) = 6
MCLinV(2,1,2):  - x(1,2) - v(2,1,2) + x(2,2) = 8
MCLin1(1,2,2):  u(1,2,2) >= -0
MCLin2(1,2,2):  -113 y(2,1,2) - u(1,2,2) <= -0
MCLin3(1,2,2):  62 y(2,1,2) + v(1,2,2) - u(1,2,2) <= 62
MCLin4(1,2,2):  62 y(2,1,2) - u(1,2,2) >= -0
MCLin5(1,2,2):  -113 y(2,1,2) + v(1,2,2) - u(1,2,2) >= -113
MCLin6(2,1,2):  u(2,1,2) >= -0
MCLin7(2,1,2):  -76 y(1,2,2) - u(2,1,2) <= -0
MCLin8(2,1,2):  99 y(1,2,2) + v(2,1,2) - u(2,1,2) <= 99
MCLin9(2,1,2):  99 y(1,2,2) - u(2,1,2) >= -0
MCLin10(2,1,2):  -76 y(1,2,2) + v(2,1,2) - u(2,1,2) >= -76
MCLinV(1,2,3):  x(1,3) - v(1,2,3) - x(2,3) = 9
MCLinV(2,1,3):  - x(1,3) - v(2,1,3) + x(2,3) = 10
MCLin1(1,2,3):  u(1,2,3) >= -0
MCLin2(1,2,3):  -94 y(2,1,3) - u(1,2,3) <= -0
MCLin3(1,2,3):  81 y(2,1,3) + v(1,2,3) - u(1,2,3) <= 81
MCLin4(1,2,3):  81 y(2,1,3) - u(1,2,3) >= -0
MCLin5(1,2,3):  -94 y(2,1,3) + v(1,2,3) - u(1,2,3) >= -94
MCLin6(2,1,3):  u(2,1,3) >= -0
MCLin7(2,1,3):  -100 y(1,2,3) - u(2,1,3) <= -0
MCLin8(2,1,3):  75 y(1,2,3) + v(2,1,3) - u(2,1,3) <= 75
MCLin9(2,1,3):  75 y(1,2,3) - u(2,1,3) >= -0
MCLin10(2,1,3):  -100 y(1,2,3) + v(2,1,3) - u(2,1,3) >= -100
MCLinV(1,3,0):  x(1,0) - v(1,3,0) - x(3,0) = 2
MCLinV(3,1,0):  - x(1,0) - v(3,1,0) + x(3,0) = 5
MCLin1(1,3,0):  u(1,3,0) >= -0
MCLin2(1,3,0):  -102 y(3,1,0) - u(1,3,0) <= -0
MCLin3(1,3,0):  93 y(3,1,0) + v(1,3,0) - u(1,3,0) <= 93
MCLin4(1,3,0):  93 y(3,1,0) - u(1,3,0) >= -0
MCLin5(1,3,0):  -102 y(3,1,0) + v(1,3,0) - u(1,3,0) >= -102
MCLin6(3,1,0):  u(3,1,0) >= -0
MCLin7(3,1,0):  -100 y(1,3,0) - u(3,1,0) <= -0
MCLin8(3,1,0):  95 y(1,3,0) + v(3,1,0) - u(3,1,0) <= 95
MCLin9(3,1,0):  95 y(1,3,0) - u(3,1,0) >= -0
MCLin10(3,1,0):  -100 y(1,3,0) + v(3,1,0) - u(3,1,0) >= -100
MCLinV(1,3,1):  x(1,1) - v(1,3,1) - x(3,1) = 1
MCLinV(3,1,1):  - x(1,1) - v(3,1,1) + x(3,1) = 7
MCLin1(1,3,1):  u(1,3,1) >= -0
MCLin2(1,3,1):  -88 y(3,1,1) - u(1,3,1) <= -0
MCLin3(1,3,1):  107 y(3,1,1) + v(1,3,1) - u(1,3,1) <= 107
MCLin4(1,3,1):  107 y(3,1,1) - u(1,3,1) >= -0
MCLin5(1,3,1):  -88 y(3,1,1) + v(1,3,1) - u(1,3,1) >= -88
MCLin6(3,1,1):  u(3,1,1) >= -0
MCLin7(3,1,1):  -115 y(1,3,1) - u(3,1,1) <= -0
MCLin8(3,1,1):  80 y(1,3,1) + v(3,1,1) - u(3,1,1) <= 80
MCLin9(3,1,1):  80 y(1,3,1) - u(3,1,1) >= -0
MCLin10(3,1,1):  -115 y(1,3,1) + v(3,1,1) - u(3,1,1) >= -115
MCLinV(1,3,2):  x(1,2) - v(1,3,2) - x(3,2) = 2
MCLinV(3,1,2):  - x(1,2) - v(3,1,2) + x(3,2) = 8
MCLin1(1,3,2):  u(1,3,2) >= -0
MCLin2(1,3,2):  -117 y(3,1,2) - u(1,3,2) <= -0
MCLin3(1,3,2):  78 y(3,1,2) + v(1,3,2) - u(1,3,2) <= 78
MCLin4(1,3,2):  78 y(3,1,2) - u(1,3,2) >= -0
MCLin5(1,3,2):  -117 y(3,1,2) + v(1,3,2) - u(1,3,2) >= -117
MCLin6(3,1,2):  u(3,1,2) >= -0
MCLin7(3,1,2):  -88 y(1,3,2) - u(3,1,2) <= -0
MCLin8(3,1,2):  107 y(1,3,2) + v(3,1,2) - u(3,1,2) <= 107
MCLin9(3,1,2):  107 y(1,3,2) - u(3,1,2) >= -0
MCLin10(3,1,2):  -88 y(1,3,2) + v(3,1,2) - u(3,1,2) >= -88
MCLinV(1,3,3):  x(1,3) - v(1,3,3) - x(3,3) = 4
MCLinV(3,1,3):  - x(1,3) - v(3,1,3) + x(3,3) = 10
MCLin1(1,3,3):  u(1,3,3) >= -0
MCLin2(1,3,3):  -102 y(3,1,3) - u(1,3,3) <= -0
MCLin3(1,3,3):  93 y(3,1,3) + v(1,3,3) - u(1,3,3) <= 93
MCLin4(1,3,3):  93 y(3,1,3) - u(1,3,3) >= -0
MCLin5(1,3,3):  -102 y(3,1,3) + v(1,3,3) - u(1,3,3) >= -102
MCLin6(3,1,3):  u(3,1,3) >= -0
MCLin7(3,1,3):  -107 y(1,3,3) - u(3,1,3) <= -0
MCLin8(3,1,3):  88 y(1,3,3) + v(3,1,3) - u(3,1,3) <= 88
MCLin9(3,1,3):  88 y(1,3,3) - u(3,1,3) >= -0
MCLin10(3,1,3):  -107 y(1,3,3) + v(3,1,3) - u(3,1,3) >= -107
MCLinV(1,4,0):  x(1,0) - v(1,4,0) - x(4,0) = 4
MCLinV(4,1,0):  - x(1,0) - v(4,1,0) + x(4,0) = 5
MCLin1(1,4,0):  u(1,4,0) >= -0
MCLin2(1,4,0):  -109 y(4,1,0) - u(1,4,0) <= -0
MCLin3(1,4,0):  67 y(4,1,0) + v(1,4,0) - u(1,4,0) <= 67
MCLin4(1,4,0):  67 y(4,1,0) - u(1,4,0) >= -0
MCLin5(1,4,0):  -109 y(4,1,0) + v(1,4,0) - u(1,4,0) >= -109
MCLin6(4,1,0):  u(4,1,0) >= -0
MCLin7(4,1,0):  -76 y(1,4,0) - u(4,1,0) <= -0
MCLin8(4,1,0):  100 y(1,4,0) + v(4,1,0) - u(4,1,0) <= 100
MCLin9(4,1,0):  100 y(1,4,0) - u(4,1,0) >= -0
MCLin10(4,1,0):  -76 y(1,4,0) + v(4,1,0) - u(4,1,0) >= -76
MCLinV(1,4,1):  x(1,1) - v(1,4,1) - x(4,1) = 9
MCLinV(4,1,1):  - x(1,1) - v(4,1,1) + x(4,1) = 7
MCLin1(1,4,1):  u(1,4,1) >= -0
MCLin2(1,4,1):  -75 y(4,1,1) - u(1,4,1) <= -0
MCLin3(1,4,1):  101 y(4,1,1) + v(1,4,1) - u(1,4,1) <= 101
MCLin4(1,4,1):  101 y(4,1,1) - u(1,4,1) >= -0
MCLin5(1,4,1):  -75 y(4,1,1) + v(1,4,1) - u(1,4,1) >= -75
MCLin6(4,1,1):  u(4,1,1) >= -0
MCLin7(4,1,1):  -117 y(1,4,1) - u(4,1,1) <= -0
MCLin8(4,1,1):  59 y(1,4,1) + v(4,1,1) - u(4,1,1) <= 59
MCLin9(4,1,1):  59 y(1,4,1) - u(4,1,1) >= -0
MCLin10(4,1,1):  -117 y(1,4,1) + v(4,1,1) - u(4,1,1) >= -117
MCLinV(1,4,2):  x(1,2) - v(1,4,2) - x(4,2) = 6
MCLinV(4,1,2):  - x(1,2) - v(4,1,2) + x(4,2) = 8
MCLin1(1,4,2):  u(1,4,2) >= -0
MCLin2(1,4,2):  -104 y(4,1,2) - u(1,4,2) <= -0
MCLin3(1,4,2):  72 y(4,1,2) + v(1,4,2) - u(1,4,2) <= 72
MCLin4(1,4,2):  72 y(4,1,2) - u(1,4,2) >= -0
MCLin5(1,4,2):  -104 y(4,1,2) + v(1,4,2) - u(1,4,2) >= -104
MCLin6(4,1,2):  u(4,1,2) >= -0
MCLin7(4,1,2):  -86 y(1,4,2) - u(4,1,2) <= -0
MCLin8(4,1,2):  90 y(1,4,2) + v(4,1,2) - u(4,1,2) <= 90
MCLin9(4,1,2):  90 y(1,4,2) - u(4,1,2) >= -0
MCLin10(4,1,2):  -86 y(1,4,2) + v(4,1,2) - u(4,1,2) >= -86
MCLinV(1,4,3):  x(1,3) - v(1,4,3) - x(4,3) = 9
MCLinV(4,1,3):  - x(1,3) - v(4,1,3) + x(4,3) = 10
MCLin1(1,4,3):  u(1,4,3) >= -0
MCLin2(1,4,3):  -100 y(4,1,3) - u(1,4,3) <= -0
MCLin3(1,4,3):  76 y(4,1,3) + v(1,4,3) - u(1,4,3) <= 76
MCLin4(1,4,3):  76 y(4,1,3) - u(1,4,3) >= -0
MCLin5(1,4,3):  -100 y(4,1,3) + v(1,4,3) - u(1,4,3) >= -100
MCLin6(4,1,3):  u(4,1,3) >= -0
MCLin7(4,1,3):  -95 y(1,4,3) - u(4,1,3) <= -0
MCLin8(4,1,3):  81 y(1,4,3) + v(4,1,3) - u(4,1,3) <= 81
MCLin9(4,1,3):  81 y(1,4,3) - u(4,1,3) >= -0
MCLin10(4,1,3):  -95 y(1,4,3) + v(4,1,3) - u(4,1,3) >= -95
MCLinV(2,3,0):  x(2,0) - v(2,3,0) - x(3,0) = 2
MCLinV(3,2,0):  - x(2,0) - v(3,2,0) + x(3,0) = 10
MCLin1(2,3,0):  u(2,3,0) >= -0
MCLin2(2,3,0):  -110 y(3,2,0) - u(2,3,0) <= -0
MCLin3(2,3,0):  86 y(3,2,0) + v(2,3,0) - u(2,3,0) <= 86
MCLin4(2,3,0):  86 y(3,2,0) - u(2,3,0) >= -0
MCLin5(2,3,0):  -110 y(3,2,0) + v(2,3,0) - u(2,3,0) >= -110
MCLin6(3,2,0):  u(3,2,0) >= -0
MCLin7(3,2,0):  -98 y(2,3,0) - u(3,2,0) <= -0
MCLin8(3,2,0):  98 y(2,3,0) + v(3,2,0) - u(3,2,0) <= 98
MCLin9(3,2,0):  98 y(2,3,0) - u(3,2,0) >= -0
MCLin10(3,2,0):  -98 y(2,3,0) + v(3,2,0) - u(3,2,0) >= -98
MCLinV(2,3,1):  x(2,1) - v(2,3,1) - x(3,1) = 1
MCLinV(3,2,1):  - x(2,1) - v(3,2,1) + x(3,1) = 4
MCLin1(2,3,1):  u(2,3,1) >= -0
MCLin2(2,3,1):  -86 y(3,2,1) - u(2,3,1) <= -0
MCLin3(2,3,1):  110 y(3,2,1) + v(2,3,1) - u(2,3,1) <= 110
MCLin4(2,3,1):  110 y(3,2,1) - u(2,3,1) >= -0
MCLin5(2,3,1):  -86 y(3,2,1) + v(2,3,1) - u(2,3,1) >= -86
MCLin6(3,2,1):  u(3,2,1) >= -0
MCLin7(3,2,1):  -115 y(2,3,1) - u(3,2,1) <= -0
MCLin8(3,2,1):  81 y(2,3,1) + v(3,2,1) - u(3,2,1) <= 81
MCLin9(3,2,1):  81 y(2,3,1) - u(3,2,1) >= -0
MCLin10(3,2,1):  -115 y(2,3,1) + v(3,2,1) - u(3,2,1) >= -115
MCLinV(2,3,2):  x(2,2) - v(2,3,2) - x(3,2) = 2
MCLinV(3,2,2):  - x(2,2) - v(3,2,2) + x(3,2) = 6
MCLin1(2,3,2):  u(2,3,2) >= -0
MCLin2(2,3,2):  -98 y(3,2,2) - u(2,3,2) <= -0
MCLin3(2,3,2):  98 y(3,2,2) + v(2,3,2) - u(2,3,2) <= 98
MCLin4(2,3,2):  98 y(3,2,2) - u(2,3,2) >= -0
MCLin5(2,3,2):  -98 y(3,2,2) + v(2,3,2) - u(2,3,2) >= -98
MCLin6(3,2,2):  u(3,2,2) >= -0
MCLin7(3,2,2):  -106 y(2,3,2) - u(3,2,2) <= -0
MCLin8(3,2,2):  90 y(2,3,2) + v(3,2,2) - u(3,2,2) <= 90
MCLin9(3,2,2):  90 y(2,3,2) - u(3,2,2) >= -0
MCLin10(3,2,2):  -106 y(2,3,2) + v(3,2,2) - u(3,2,2) >= -106
MCLinV(2,3,3):  x(2,3) - v(2,3,3) - x(3,3) = 4
MCLinV(3,2,3):  - x(2,3) - v(3,2,3) + x(3,3) = 9
MCLin1(2,3,3):  u(2,3,3) >= -0
MCLin2(2,3,3):  -105 y(3,2,3) - u(2,3,3) <= -0
MCLin3(2,3,3):  91 y(3,2,3) + v(2,3,3) - u(2,3,3) <= 91
MCLin4(2,3,3):  91 y(3,2,3) - u(2,3,3) >= -0
MCLin5(2,3,3):  -105 y(3,2,3) + v(2,3,3) - u(2,3,3) >= -105
MCLin6(3,2,3):  u(3,2,3) >= -0
MCLin7(3,2,3):  -104 y(2,3,3) - u(3,2,3) <= -0
MCLin8(3,2,3):  92 y(2,3,3) + v(3,2,3) - u(3,2,3) <= 92
MCLin9(3,2,3):  92 y(2,3,3) - u(3,2,3) >= -0
MCLin10(3,2,3):  -104 y(2,3,3) + v(3,2,3) - u(3,2,3) >= -104
MCLinV(2,4,0):  x(2,0) - v(2,4,0) - x(4,0) = 4
MCLinV(4,2,0):  - x(2,0) - v(4,2,0) + x(4,0) = 10
MCLin1(2,4,0):  u(2,4,0) >= -0
MCLin2(2,4,0):  -117 y(4,2,0) - u(2,4,0) <= -0
MCLin3(2,4,0):  60 y(4,2,0) + v(2,4,0) - u(2,4,0) <= 60
MCLin4(2,4,0):  60 y(4,2,0) - u(2,4,0) >= -0
MCLin5(2,4,0):  -117 y(4,2,0) + v(2,4,0) - u(2,4,0) >= -117
MCLin6(4,2,0):  u(4,2,0) >= -0
MCLin7(4,2,0):  -74 y(2,4,0) - u(4,2,0) <= -0
MCLin8(4,2,0):  103 y(2,4,0) + v(4,2,0) - u(4,2,0) <= 103
MCLin9(4,2,0):  103 y(2,4,0) - u(4,2,0) >= -0
MCLin10(4,2,0):  -74 y(2,4,0) + v(4,2,0) - u(4,2,0) >= -74
MCLinV(2,4,1):  x(2,1) - v(2,4,1) - x(4,1) = 9
MCLinV(4,2,1):  - x(2,1) - v(4,2,1) + x(4,1) = 4
MCLin1(2,4,1):  u(2,4,1) >= -0
MCLin2(2,4,1):  -73 y(4,2,1) - u(2,4,1) <= -0
MCLin3(2,4,1):  104 y(4,2,1) + v(2,4,1) - u(2,4,1) <= 104
MCLin4(2,4,1):  104 y(4,2,1) - u(2,4,1) >= -0
MCLin5(2,4,1):  -73 y(4,2,1) + v(2,4,1) - u(2,4,1) >= -73
MCLin6(4,2,1):  u(4,2,1) >= -0
MCLin7(4,2,1):  -117 y(2,4,1) - u(4,2,1) <= -0
MCLin8(4,2,1):  60 y(2,4,1) + v(4,2,1) - u(4,2,1) <= 60
MCLin9(4,2,1):  60 y(2,4,1) - u(4,2,1) >= -0
MCLin10(4,2,1):  -117 y(2,4,1) + v(4,2,1) - u(4,2,1) >= -117
MCLinV(2,4,2):  x(2,2) - v(2,4,2) - x(4,2) = 6
MCLinV(4,2,2):  - x(2,2) - v(4,2,2) + x(4,2) = 6
MCLin1(2,4,2):  u(2,4,2) >= -0
MCLin2(2,4,2):  -85 y(4,2,2) - u(2,4,2) <= -0
MCLin3(2,4,2):  92 y(4,2,2) + v(2,4,2) - u(2,4,2) <= 92
MCLin4(2,4,2):  92 y(4,2,2) - u(2,4,2) >= -0
MCLin5(2,4,2):  -85 y(4,2,2) + v(2,4,2) - u(2,4,2) >= -85
MCLin6(4,2,2):  u(4,2,2) >= -0
MCLin7(4,2,2):  -104 y(2,4,2) - u(4,2,2) <= -0
MCLin8(4,2,2):  73 y(2,4,2) + v(4,2,2) - u(4,2,2) <= 73
MCLin9(4,2,2):  73 y(2,4,2) - u(4,2,2) >= -0
MCLin10(4,2,2):  -104 y(2,4,2) + v(4,2,2) - u(4,2,2) >= -104
MCLinV(2,4,3):  x(2,3) - v(2,4,3) - x(4,3) = 9
MCLinV(4,2,3):  - x(2,3) - v(4,2,3) + x(4,3) = 9
MCLin1(2,4,3):  u(2,4,3) >= -0
MCLin2(2,4,3):  -103 y(4,2,3) - u(2,4,3) <= -0
MCLin3(2,4,3):  74 y(4,2,3) + v(2,4,3) - u(2,4,3) <= 74
MCLin4(2,4,3):  74 y(4,2,3) - u(2,4,3) >= -0
MCLin5(2,4,3):  -103 y(4,2,3) + v(2,4,3) - u(2,4,3) >= -103
MCLin6(4,2,3):  u(4,2,3) >= -0
MCLin7(4,2,3):  -92 y(2,4,3) - u(4,2,3) <= -0
MCLin8(4,2,3):  85 y(2,4,3) + v(4,2,3) - u(4,2,3) <= 85
MCLin9(4,2,3):  85 y(2,4,3) - u(4,2,3) >= -0
MCLin10(4,2,3):  -92 y(2,4,3) + v(4,2,3) - u(4,2,3) >= -92
MCLinV(3,4,0):  x(3,0) - v(3,4,0) - x(4,0) = 4
MCLinV(4,3,0):  - x(3,0) - v(4,3,0) + x(4,0) = 2
MCLin1(3,4,0):  u(3,4,0) >= -0
MCLin2(3,4,0):  -117 y(4,3,0) - u(3,4,0) <= -0
MCLin3(3,4,0):  80 y(4,3,0) + v(3,4,0) - u(3,4,0) <= 80
MCLin4(3,4,0):  80 y(4,3,0) - u(3,4,0) >= -0
MCLin5(3,4,0):  -117 y(4,3,0) + v(3,4,0) - u(3,4,0) >= -117
MCLin6(4,3,0):  u(4,3,0) >= -0
MCLin7(4,3,0):  -86 y(3,4,0) - u(4,3,0) <= -0
MCLin8(4,3,0):  111 y(3,4,0) + v(4,3,0) - u(4,3,0) <= 111
MCLin9(4,3,0):  111 y(3,4,0) - u(4,3,0) >= -0
MCLin10(4,3,0):  -86 y(3,4,0) + v(4,3,0) - u(4,3,0) >= -86
MCLinV(3,4,1):  x(3,1) - v(3,4,1) - x(4,1) = 9
MCLinV(4,3,1):  - x(3,1) - v(4,3,1) + x(4,1) = 1
MCLin1(3,4,1):  u(3,4,1) >= -0
MCLin2(3,4,1):  -96 y(4,3,1) - u(3,4,1) <= -0
MCLin3(3,4,1):  101 y(4,3,1) + v(3,4,1) - u(3,4,1) <= 101
MCLin4(3,4,1):  101 y(4,3,1) - u(3,4,1) >= -0
MCLin5(3,4,1):  -96 y(4,3,1) + v(3,4,1) - u(3,4,1) >= -96
MCLin6(4,3,1):  u(4,3,1) >= -0
MCLin7(4,3,1):  -111 y(3,4,1) - u(4,3,1) <= -0
MCLin8(4,3,1):  86 y(3,4,1) + v(4,3,1) - u(4,3,1) <= 86
MCLin9(4,3,1):  86 y(3,4,1) - u(4,3,1) >= -0
MCLin10(4,3,1):  -111 y(3,4,1) + v(4,3,1) - u(4,3,1) >= -111
MCLinV(3,4,2):  x(3,2) - v(3,4,2) - x(4,2) = 6
MCLinV(4,3,2):  - x(3,2) - v(4,3,2) + x(4,2) = 2
MCLin1(3,4,2):  u(3,4,2) >= -0
MCLin2(3,4,2):  -97 y(4,3,2) - u(3,4,2) <= -0
MCLin3(3,4,2):  100 y(4,3,2) + v(3,4,2) - u(3,4,2) <= 100
MCLin4(3,4,2):  100 y(4,3,2) - u(3,4,2) >= -0
MCLin5(3,4,2):  -97 y(4,3,2) + v(3,4,2) - u(3,4,2) >= -97
MCLin6(4,3,2):  u(4,3,2) >= -0
MCLin7(4,3,2):  -108 y(3,4,2) - u(4,3,2) <= -0
MCLin8(4,3,2):  89 y(3,4,2) + v(4,3,2) - u(4,3,2) <= 89
MCLin9(4,3,2):  89 y(3,4,2) - u(4,3,2) >= -0
MCLin10(4,3,2):  -108 y(3,4,2) + v(4,3,2) - u(4,3,2) >= -108
MCLinV(3,4,3):  x(3,3) - v(3,4,3) - x(4,3) = 9
MCLinV(4,3,3):  - x(3,3) - v(4,3,3) + x(4,3) = 4
MCLin1(3,4,3):  u(3,4,3) >= -0
MCLin2(3,4,3):  -110 y(4,3,3) - u(3,4,3) <= -0
MCLin3(3,4,3):  87 y(4,3,3) + v(3,4,3) - u(3,4,3) <= 87
MCLin4(3,4,3):  87 y(4,3,3) - u(3,4,3) >= -0
MCLin5(3,4,3):  -110 y(4,3,3) + v(3,4,3) - u(3,4,3) >= -110
MCLin6(4,3,3):  u(4,3,3) >= -0
MCLin7(4,3,3):  -100 y(3,4,3) - u(4,3,3) <= -0
MCLin8(4,3,3):  97 y(3,4,3) + v(4,3,3) - u(4,3,3) <= 97
MCLin9(4,3,3):  97 y(3,4,3) - u(4,3,3) >= -0
MCLin10(4,3,3):  -100 y(3,4,3) + v(4,3,3) - u(4,3,3) >= -100
makespan(0):  C - x(0,0) >= 9
makespan(1):  C - x(1,1) >= 7
makespan(2):  C - x(2,1) >= 4
makespan(3):  C - x(3,2) >= 2
makespan(4):  C - x(4,0) >= 4
Bounds
 0 <= C <= 117
 12 <= x(0,0) <= 108
 0 <= y(0,1,0) <= 1
 0 <= y(1,0,0) <= 1
 -88 <= v(0,1,0) <= 95
 -109 <= v(1,0,0) <= 74
 -1170 <= u(0,1,0)
 -1170 <= u(1,0,0)
 0 <= y(0,2,0) <= 1
 0 <= y(2,0,0) <= 1
 -86 <= v(0,2,0) <= 98
 -117 <= v(2,0,0) <= 67
 -1170 <= u(0,2,0)
 -1170 <= u(2,0,0)
 0 <= y(0,3,0) <= 1
 0 <= y(3,0,0) <= 1
 -98 <= v(0,3,0) <= 106
 -117 <= v(3,0,0) <= 87
 -1170 <= u(0,3,0)
 -1170 <= u(3,0,0)
 0 <= y(0,4,0) <= 1
 0 <= y(4,0,0) <= 1
 -105 <= v(0,4,0) <= 80
 -93 <= v(4,0,0) <= 92
 -1170 <= u(0,4,0)
 -1170 <= u(4,0,0)
 8 <= x(1,0) <= 95
 0 <= y(1,2,0) <= 1
 0 <= y(2,1,0) <= 1
 -90 <= v(1,2,0) <= 85
 -100 <= v(2,1,0) <= 75
 -1170 <= u(1,2,0)
 -1170 <= u(2,1,0)
 0 <= y(1,3,0) <= 1
 0 <= y(3,1,0) <= 1
 -102 <= v(1,3,0) <= 93
 -100 <= v(3,1,0) <= 95
 -1170 <= u(1,3,0)
 -1170 <= u(3,1,0)
 0 <= y(1,4,0) <= 1
 0 <= y(4,1,0) <= 1
 -109 <= v(1,4,0) <= 67
 -76 <= v(4,1,0) <= 100
 -1170 <= u(1,4,0)
 -1170 <= u(4,1,0)
 0 <= x(2,0) <= 88
 0 <= y(2,3,0) <= 1
 0 <= y(3,2,0) <= 1
 -110 <= v(2,3,0) <= 86
 -98 <= v(3,2,0) <= 98
 -1170 <= u(2,3,0)
 -1170 <= u(3,2,0)
 0 <= y(2,4,0) <= 1
 0 <= y(4,2,0) <= 1
 -117 <= v(2,4,0) <= 60
 -74 <= v(4,2,0) <= 103
 -1170 <= u(2,4,0)
 -1170 <= u(4,2,0)
 0 <= x(3,0) <= 108
 0 <= y(3,4,0) <= 1
 0 <= y(4,3,0) <= 1
 -117 <= v(3,4,0) <= 80
 -86 <= v(4,3,0) <= 111
 -1170 <= u(3,4,0)
 -1170 <= u(4,3,0)
 24 <= x(4,0) <= 113
 4 <= x(0,1) <= 100
 0 <= y(0,1,1) <= 1
 0 <= y(1,0,1) <= 1
 -113 <= v(0,1,1) <= 70
 -85 <= v(1,0,1) <= 98
 -1170 <= u(0,1,1)
 -1170 <= u(1,0,1)
 0 <= y(0,2,1) <= 1
 0 <= y(2,0,1) <= 1
 -113 <= v(0,2,1) <= 71
 -83 <= v(2,0,1) <= 101
 -1170 <= u(0,2,1)
 -1170 <= u(2,0,1)
 0 <= y(0,3,1) <= 1
 0 <= y(3,0,1) <= 1
 -107 <= v(0,3,1) <= 97
 -106 <= v(3,0,1) <= 98
 -1170 <= u(0,3,1)
 -1170 <= u(3,0,1)
 0 <= y(0,4,1) <= 1
 0 <= y(4,0,1) <= 1
 -94 <= v(0,4,1) <= 91
 -108 <= v(4,0,1) <= 77
 -1170 <= u(0,4,1)
 -1170 <= u(4,0,1)
 23 <= x(1,1) <= 110
 0 <= y(1,2,1) <= 1
 0 <= y(2,1,1) <= 1
 -94 <= v(1,2,1) <= 81
 -92 <= v(2,1,1) <= 83
 -1170 <= u(1,2,1)
 -1170 <= u(2,1,1)
 0 <= y(1,3,1) <= 1
 0 <= y(3,1,1) <= 1
 -88 <= v(1,3,1) <= 107
 -115 <= v(3,1,1) <= 80
 -1170 <= u(1,3,1)
 -1170 <= u(3,1,1)
 0 <= y(1,4,1) <= 1
 0 <= y(4,1,1) <= 1
 -75 <= v(1,4,1) <= 101
 -117 <= v(4,1,1) <= 59
 -1170 <= u(1,4,1)
 -1170 <= u(4,1,1)
 25 <= x(2,1) <= 113
 0 <= y(2,3,1) <= 1
 0 <= y(3,2,1) <= 1
 -86 <= v(2,3,1) <= 110
 -115 <= v(3,2,1) <= 81
 -1170 <= u(2,3,1)
 -1170 <= u(3,2,1)
 0 <= y(2,4,1) <= 1
 0 <= y(4,2,1) <= 1
 -73 <= v(2,4,1) <= 104
 -117 <= v(4,2,1) <= 60
 -1170 <= u(2,4,1)
 -1170 <= u(4,2,1)
 2 <= x(3,1) <= 110
 0 <= y(3,4,1) <= 1
 0 <= y(4,3,1) <= 1
 -96 <= v(3,4,1) <= 101
 -111 <= v(4,3,1) <= 86
 -1170 <= u(3,4,1)
 -1170 <= u(4,3,1)
 0 <= x(4,1) <= 89
 0 <= x(0,2) <= 96
 0 <= y(0,1,2) <= 1
 0 <= y(1,0,2) <= 1
 -95 <= v(0,1,2) <= 88
 -98 <= v(1,0,2) <= 85
 -1170 <= u(0,1,2)
 -1170 <= u(1,0,2)
 0 <= y(0,2,2) <= 1
 0 <= y(2,0,2) <= 1
 -113 <= v(0,2,2) <= 71
 -79 <= v(2,0,2) <= 105
 -1170 <= u(0,2,2)
 -1170 <= u(2,0,2)
 0 <= y(0,3,2) <= 1
 0 <= y(3,0,2) <= 1
 -117 <= v(0,3,2) <= 87
 -91 <= v(3,0,2) <= 113
 -1170 <= u(0,3,2)
 -1170 <= u(3,0,2)
 0 <= y(0,4,2) <= 1
 0 <= y(4,0,2) <= 1
 -104 <= v(0,4,2) <= 81
 -89 <= v(4,0,2) <= 96
 -1170 <= u(0,4,2)
 -1170 <= u(4,0,2)
 0 <= x(1,2) <= 87
 0 <= y(1,2,2) <= 1
 0 <= y(2,1,2) <= 1
 -113 <= v(1,2,2) <= 62
 -76 <= v(2,1,2) <= 99
 -1170 <= u(1,2,2)
 -1170 <= u(2,1,2)
 0 <= y(1,3,2) <= 1
 0 <= y(3,1,2) <= 1
 -117 <= v(1,3,2) <= 78
 -88 <= v(3,1,2) <= 107
 -1170 <= u(1,3,2)
 -1170 <= u(3,1,2)
 0 <= y(1,4,2) <= 1
 0 <= y(4,1,2) <= 1
 -104 <= v(1,4,2) <= 72
 -86 <= v(4,1,2) <= 90
 -1170 <= u(1,4,2)
 -1170 <= u(4,1,2)
 19 <= x(2,2) <= 107
 0 <= y(2,3,2) <= 1
 0 <= y(3,2,2) <= 1
 -98 <= v(2,3,2) <= 98
 -106 <= v(3,2,2) <= 90
 -1170 <= u(2,3,2)
 -1170 <= u(3,2,2)
 0 <= y(2,4,2) <= 1
 0 <= y(4,2,2) <= 1
 -85 <= v(2,4,2) <= 92
 -104 <= v(4,2,2) <= 73
 -1170 <= u(2,4,2)
 -1170 <= u(4,2,2)
 7 <= x(3,2) <= 115
 0 <= y(3,4,2) <= 1
 0 <= y(4,3,2) <= 1
 -97 <= v(3,4,2) <= 100
 -108 <= v(4,3,2) <= 89
 -1170 <= u(3,4,2)
 -1170 <= u(4,3,2)
 9 <= x(4,2) <= 98
 2 <= x(0,3) <= 98
 0 <= y(0,1,3) <= 1
 0 <= y(1,0,3) <= 1
 -108 <= v(0,1,3) <= 75
 -87 <= v(1,0,3) <= 96
 -1170 <= u(0,1,3)
 -1170 <= u(1,0,3)
 0 <= y(0,2,3) <= 1
 0 <= y(2,0,3) <= 1
 -105 <= v(0,2,3) <= 79
 -90 <= v(2,0,3) <= 94
 -1170 <= u(0,2,3)
 -1170 <= u(2,0,3)
 0 <= y(0,3,3) <= 1
 0 <= y(3,0,3) <= 1
 -113 <= v(0,3,3) <= 91
 -97 <= v(3,0,3) <= 107
 -1170 <= u(0,3,3)
 -1170 <= u(3,0,3)
 0 <= y(0,4,3) <= 1
 0 <= y(4,0,3) <= 1
 -111 <= v(0,4,3) <= 74
 -85 <= v(4,0,3) <= 100
 -1170 <= u(0,4,3)
 -1170 <= u(4,0,3)
 13 <= x(1,3) <= 100
 0 <= y(1,2,3) <= 1
 0 <= y(2,1,3) <= 1
 -94 <= v(1,2,3) <= 81
 -100 <= v(2,1,3) <= 75
 -1170 <= u(1,2,3)
 -1170 <= u(2,1,3)
 0 <= y(1,3,3) <= 1
 0 <= y(3,1,3) <= 1
 -102 <= v(1,3,3) <= 93
 -107 <= v(3,1,3) <= 88
 -1170 <= u(1,3,3)
 -1170 <= u(3,1,3)
 0 <= y(1,4,3) <= 1
 0 <= y(4,1,3) <= 1
 -100 <= v(1,4,3) <= 76
 -95 <= v(4,1,3) <= 81
 -1170 <= u(1,4,3)
 -1170 <= u(4,1,3)
 10 <= x(2,3) <= 98
 0 <= y(2,3,3) <= 1
 0 <= y(3,2,3) <= 1
 -105 <= v(2,3,3) <= 91
 -104 <= v(3,2,3) <= 92
 -1170 <= u(2,3,3)
 -1170 <= u(3,2,3)
 0 <= y(2,4,3) <= 1
 0 <= y(4,2,3) <= 1
 -103 <= v(2,4,3) <= 74
 -92 <= v(4,2,3) <= 85
 -1170 <= u(2,4,3)
 -1170 <= u(4,2,3)
 3 <= x(3,3) <= 111
 0 <= y(3,4,3) <= 1
 0 <= y(4,3,3) <= 1
 -110 <= v(3,4,3) <= 87
 -100 <= v(4,3,3) <= 97
 -1170 <= u(3,4,3)
 -1170 <= u(4,3,3)
 15 <= x(4,3) <= 104
Integers
C x(0,0) y(0,1,0) y(1,0,0) v(0,1,0) v(1,0,0) u(0,1,0) u(1,0,0) y(0,2,0) y(2,0,0) 
v(0,2,0) v(2,0,0) u(0,2,0) u(2,0,0) y(0,3,0) y(3,0,0) v(0,3,0) v(3,0,0) u(0,3,0) u(3,0,0) 
y(0,4,0) y(4,0,0) v(0,4,0) v(4,0,0) u(0,4,0) u(4,0,0) x(1,0) y(1,2,0) y(2,1,0) v(1,2,0) 
v(2,1,0) u(1,2,0) u(2,1,0) y(1,3,0) y(3,1,0) v(1,3,0) v(3,1,0) u(1,3,0) u(3,1,0) y(1,4,0) 
y(4,1,0) v(1,4,0) v(4,1,0) u(1,4,0) u(4,1,0) x(2,0) y(2,3,0) y(3,2,0) v(2,3,0) v(3,2,0) 
u(2,3,0) u(3,2,0) y(2,4,0) y(4,2,0) v(2,4,0) v(4,2,0) u(2,4,0) u(4,2,0) x(3,0) y(3,4,0) 
y(4,3,0) v(3,4,0) v(4,3,0) u(3,4,0) u(4,3,0) x(4,0) x(0,1) y(0,1,1) y(1,0,1) v(0,1,1) 
v(1,0,1) u(0,1,1) u(1,0,1) y(0,2,1) y(2,0,1) v(0,2,1) v(2,0,1) u(0,2,1) u(2,0,1) y(0,3,1) 
y(3,0,1) v(0,3,1) v(3,0,1) u(0,3,1) u(3,0,1) y(0,4,1) y(4,0,1) v(0,4,1) v(4,0,1) u(0,4,1) 
u(4,0,1) x(1,1) y(1,2,1) y(2,1,1) v(1,2,1) v(2,1,1) u(1,2,1) u(2,1,1) y(1,3,1) y(3,1,1) 
v(1,3,1) v(3,1,1) u(1,3,1) u(3,1,1) y(1,4,1) y(4,1,1) v(1,4,1) v(4,1,1) u(1,4,1) u(4,1,1) 
x(2,1) y(2,3,1) y(3,2,1) v(2,3,1) v(3,2,1) u(2,3,1) u(3,2,1) y(2,4,1) y(4,2,1) v(2,4,1) 
v(4,2,1) u(2,4,1) u(4,2,1) x(3,1) y(3,4,1) y(4,3,1) v(3,4,1) v(4,3,1) u(3,4,1) u(4,3,1) 
x(4,1) x(0,2) y(0,1,2) y(1,0,2) v(0,1,2) v(1,0,2) u(0,1,2) u(1,0,2) y(0,2,2) y(2,0,2) 
v(0,2,2) v(2,0,2) u(0,2,2) u(2,0,2) y(0,3,2) y(3,0,2) v(0,3,2) v(3,0,2) u(0,3,2) u(3,0,2) 
y(0,4,2) y(4,0,2) v(0,4,2) v(4,0,2) u(0,4,2) u(4,0,2) x(1,2) y(1,2,2) y(2,1,2) v(1,2,2) 
v(2,1,2) u(1,2,2) u(2,1,2) y(1,3,2) y(3,1,2) v(1,3,2) v(3,1,2) u(1,3,2) u(3,1,2) y(1,4,2) 
y(4,1,2) v(1,4,2) v(4,1,2) u(1,4,2) u(4,1,2) x(2,2) y(2,3,2) y(3,2,2) v(2,3,2) v(3,2,2) 
u(2,3,2) u(3,2,2) y(2,4,2) y(4,2,2) v(2,4,2) v(4,2,2) u(2,4,2) u(4,2,2) x(3,2) y(3,4,2) 
y(4,3,2) v(3,4,2) v(4,3,2) u(3,4,2) u(4,3,2) x(4,2) x(0,3) y(0,1,3) y(1,0,3) v(0,1,3) 
v(1,0,3) u(0,1,3) u(1,0,3) y(0,2,3) y(2,0,3) v(0,2,3) v(2,0,3) u(0,2,3) u(2,0,3) y(0,3,3) 
y(3,0,3) v(0,3,3) v(3,0,3) u(0,3,3) u(3,0,3) y(0,4,3) y(4,0,3) v(0,4,3) v(4,0,3) u(0,4,3) 
u(4,0,3) x(1,3) y(1,2,3) y(2,1,3) v(1,2,3) v(2,1,3) u(1,2,3) u(2,1,3) y(1,3,3) y(3,1,3) 
v(1,3,3) v(3,1,3) u(1,3,3) u(3,1,3) y(1,4,3) y(4,1,3) v(1,4,3) v(4,1,3) u(1,4,3) u(4,1,3) 
x(2,3) y(2,3,3) y(3,2,3) v(2,3,3) v(3,2,3) u(2,3,3) u(3,2,3) y(2,4,3) y(4,2,3) v(2,4,3) 
v(4,2,3) u(2,4,3) u(4,2,3) x(3,3) y(3,4,3) y(4,3,3) v(3,4,3) v(4,3,3) u(3,4,3) u(4,3,3) 
x(4,3) 
End
